(set-logic QF_UF)
(declare-sort I 0)
(declare-fun op (I I) I)
(declare-fun e4 () I)
(declare-fun e3 () I)
(declare-fun e2 () I)
(declare-fun e1 () I)
(declare-fun e0 () I)
(assert (let ((?v_1 (op e0 e0)) (?v_2 (op e0 e1)) (?v_3 (op e0 e2)) (?v_4 (op e0 e3)) (?v_5 (op e0 e4)) (?v_7 (op e1 e0)) (?v_18 (op e1 e1)) (?v_19 (op e1 e2)) (?v_20 (op e1 e3)) (?v_21 (op e1 e4)) (?v_8 (op e2 e0)) (?v_24 (op e2 e1)) (?v_43 (op e2 e2)) (?v_44 (op e2 e3)) (?v_45 (op e2 e4)) (?v_9 (op e3 e0)) (?v_25 (op e3 e1)) (?v_49 (op e3 e2)) (?v_76 (op e3 e3)) (?v_77 (op e3 e4)) (?v_10 (op e4 e0)) (?v_26 (op e4 e1)) (?v_50 (op e4 e2)) (?v_82 (op e4 e3)) (?v_117 (op e4 e4))) (let ((?v_0 false) (?v_6 true) (?v_11 false) (?v_12 false) (?v_13 false) (?v_15 false) (?v_22 false) (?v_28 false) (?v_31 false) (?v_34 true) (?v_38 false) (?v_46 false) (?v_53 false) (?v_58 true) (?v_63 false) (?v_69 true) (?v_78 false) (?v_86 false) (?v_93 false) (?v_100 false) (?v_108 false) (?v_118 false) (?v_127 true) (?v_136 false) (?v_145 false) (?v_14 true) (?v_17 false) (?v_27 false) (?v_30 false) (?v_33 false) (?v_16 false) (?v_23 true) (?v_29 false) (?v_32 false) (?v_35 false) (?v_39 false) (?v_47 false) (?v_54 true) (?v_59 false) (?v_64 false) (?v_70 false) (?v_79 false) (?v_87 false) (?v_94 true) (?v_101 false) (?v_109 false) (?v_119 false) (?v_128 false) (?v_137 false) (?v_146 true) (?v_36 false) (?v_41 false) (?v_51 true) (?v_56 false) (?v_61 false) (?v_37 (= ?v_24 e0)) (?v_42 false) (?v_52 false) (?v_57 false) (?v_62 false) (?v_40 false) (?v_48 false) (?v_55 false) (?v_60 false) (?v_65 true) (?v_71 false) (?v_80 true) (?v_88 false) (?v_95 false) (?v_102 false) (?v_110 false) (?v_120 false) (?v_129 false) (?v_138 true) (?v_147 false) (?v_66 false) (?v_73 false) (?v_83 false) (?v_90 false) (?v_97 true) (?v_67 false) (?v_74 false) (?v_84 false) (?v_91 true) (?v_98 false) (?v_68 true) (?v_75 false) (?v_85 false) (?v_92 false) (?v_99 false) (?v_72 false) (?v_81 false) (?v_89 true) (?v_96 false) (?v_103 false) (?v_111 false) (?v_121 (= ?v_77 e1)) (?v_130 false) (?v_139 false) (?v_148 false) (?v_104 false) (?v_113 false) (?v_123 false) (?v_132 true) (?v_141 false) (?v_105 false) (?v_114 false) (?v_124 (= ?v_26 e2)) (?v_133 false) (?v_142 false) (?v_106 false) (?v_115 true) (?v_125 false) (?v_134 false) (?v_143 false) (?v_107 false) (?v_116 false) (?v_126 false) (?v_135 false) (?v_144 true) (?v_112 (= ?v_117 e0)) (?v_122 false) (?v_131 false) (?v_140 true) (?v_149 false)) (and (and (and true (and (and (and (and (and (or (or (or (or false ?v_37) false) false) false) true) true) true) true) true)) true) (and (and (and (and (and true (or false ?v_112)) (and true (or (or false ?v_121) false))) (and (or (or (or (or false ?v_124) false) false) false) true)) true) true)))))
(assert (let ((?v_25 (op e0 e0)) (?v_27 (op e0 e1)) (?v_29 (op e0 e2)) (?v_31 (op e0 e3)) (?v_33 (op e0 e4)) (?v_28 (op e1 e0)) (?v_37 (op e1 e1)) (?v_39 (op e1 e2)) (?v_41 (op e1 e3)) (?v_43 (op e1 e4)) (?v_30 (op e2 e0)) (?v_40 (op e2 e1)) (?v_49 (op e2 e2)) (?v_51 (op e2 e3)) (?v_53 (op e2 e4)) (?v_32 (op e3 e0)) (?v_42 (op e3 e1)) (?v_52 (op e3 e2)) (?v_61 (op e3 e3)) (?v_63 (op e3 e4)) (?v_34 (op e4 e0)) (?v_44 (op e4 e1)) (?v_54 (op e4 e2)) (?v_64 (op e4 e3)) (?v_73 (op e4 e4))) (let ((?v_0 false) (?v_26 false) (?v_75 false) (?v_100 false) (?v_125 false) (?v_2 false) (?v_36 false) (?v_77 false) (?v_102 false) (?v_127 false) (?v_5 false) (?v_46 false) (?v_80 false) (?v_105 false) (?v_130 false) (?v_10 false) (?v_56 false) (?v_85 false) (?v_110 (= ?v_31 e3)) (?v_135 false) (?v_17 false) (?v_66 false) (?v_92 false) (?v_117 false) (?v_142 false) (?v_1 false) (?v_35 false) (?v_76 false) (?v_101 false) (?v_126 false) (?v_3 false) (?v_38 true) (?v_78 false) (?v_103 false) (?v_128 false) (?v_7 false) (?v_48 false) (?v_82 false) (?v_107 false) (?v_132 false) (?v_12 false) (?v_58 false) (?v_87 false) (?v_112 (= ?v_41 e3)) (?v_137 false) (?v_19 false) (?v_68 false) (?v_94 false) (?v_119 false) (?v_144 false) (?v_4 false) (?v_45 false) (?v_79 false) (?v_104 false) (?v_129 false) (?v_6 false) (?v_47 false) (?v_81 false) (?v_106 false) (?v_131 false) (?v_8 false) (?v_50 false) (?v_83 false) (?v_108 false) (?v_133 true) (?v_14 false) (?v_60 false) (?v_89 false) (?v_114 (= ?v_51 e3)) (?v_139 false) (?v_21 false) (?v_70 false) (?v_96 false) (?v_121 false) (?v_146 false) (?v_9 false) (?v_55 false) (?v_84 false) (?v_109 (= ?v_32 e3)) (?v_134 false) (?v_11 false) (?v_57 false) (?v_86 false) (?v_111 (= ?v_42 e3)) (?v_136 false) (?v_13 false) (?v_59 false) (?v_88 false) (?v_113 (= ?v_52 e3)) (?v_138 false) (?v_15 false) (?v_62 false) (?v_90 (= ?v_61 e2)) (?v_115 (= ?v_61 e3)) (?v_140 false) (?v_23 false) (?v_72 false) (?v_98 false) (?v_123 (= ?v_63 e3)) (?v_148 false) (?v_16 false) (?v_65 false) (?v_91 false) (?v_116 false) (?v_141 false) (?v_18 false) (?v_67 false) (?v_93 false) (?v_118 false) (?v_143 false) (?v_20 false) (?v_69 false) (?v_95 false) (?v_120 false) (?v_145 false) (?v_22 false) (?v_71 false) (?v_97 false) (?v_122 (= ?v_64 e3)) (?v_147 false) (?v_24 true) (?v_74 false) (?v_99 false) (?v_124 false) (?v_149 false)) (and (and (and true (or (or false (or (or false (and ?v_90 ?v_90)) false)) false)) (or (or false (or (or (or (or (and ?v_109 ?v_110) (and ?v_111 ?v_112)) (and ?v_113 ?v_114)) (and ?v_115 ?v_115)) (and ?v_123 ?v_122))) false)) true))))
(assert (let ((?v_0 (op e0 e0)) (?v_2 (op e0 e1)) (?v_5 (op e0 e2)) (?v_10 (op e0 e3)) (?v_17 (op e0 e4)) (?v_1 (op e1 e0)) (?v_3 (op e1 e1)) (?v_7 (op e1 e2)) (?v_12 (op e1 e3)) (?v_19 (op e1 e4)) (?v_4 (op e2 e0)) (?v_6 (op e2 e1)) (?v_8 (op e2 e2)) (?v_14 (op e2 e3)) (?v_21 (op e2 e4)) (?v_9 (op e3 e0)) (?v_11 (op e3 e1)) (?v_13 (op e3 e2)) (?v_15 (op e3 e3)) (?v_23 (op e3 e4)) (?v_16 (op e4 e0)) (?v_18 (op e4 e1)) (?v_20 (op e4 e2)) (?v_22 (op e4 e3)) (?v_24 (op e4 e4))) (and (and (and (and true (or false (not (= ?v_19 ?v_18)))) true) true) true)))
(assert (let ((?v_2 (op e0 e1)) (?v_5 (op e0 e2)) (?v_10 (op e0 e3)) (?v_17 (op e0 e4)) (?v_1 (op e1 e0)) (?v_7 (op e1 e2)) (?v_12 (op e1 e3)) (?v_19 (op e1 e4)) (?v_4 (op e2 e0)) (?v_6 (op e2 e1)) (?v_14 (op e2 e3)) (?v_21 (op e2 e4)) (?v_9 (op e3 e0)) (?v_11 (op e3 e1)) (?v_13 (op e3 e2)) (?v_23 (op e3 e4)) (?v_16 (op e4 e0)) (?v_18 (op e4 e1)) (?v_20 (op e4 e2)) (?v_22 (op e4 e3)) (?v_0 false) (?v_3 false) (?v_8 false) (?v_15 (= (op e3 e3) e3)) (?v_24 false)) (or (or (or false (or (or (or (or false (and (= ?v_6 e2) (= ?v_7 e2))) false) false) false)) (or (or (or (or (and (= ?v_9 e3) (= ?v_10 e3)) (and (= ?v_11 e3) (= ?v_12 e3))) (and (= ?v_13 e3) (= ?v_14 e3))) (and ?v_15 ?v_15)) (and (= ?v_23 e3) (= ?v_22 e3)))) (or (or (or (or false (and (= ?v_18 e4) true)) false) (and true (= ?v_23 e4))) false))))
(assert (and (and (and true (= e1 (op e0 e0))) true) (= e4 (op e2 e2))))
(check-sat)
(exit)
